webassembly/ejemplos_dzn/folder14_json_33.dzn
TERM = { '.', 's(5)', 's(2)', 's(4)', 'in_1', 'local_0', 'local_1', 'in_2', 'in_4', 'in_3', 's(1)', 's(0)', 'in_5', 's(3)', 'in_0'};
null = '.';
s = 14;
n = 12;
ndeps = 8;
max_registers_sz = 4;
NR = 1;
registers = [|'local_0', 's(0)'|];
dependencies = [|'i32.store_1', 'i32.load8_s_2', |'i32.store_1', 'i32.load_5', |'i32.load8_s_2', 'i32.store_6', |'i32.load_5', 'i32.store_6', |'i32.store_6', 'call[function_index(0)]_7', |'call[function_index(0)]_7', 'i32.store8_8', |'i32.store8_8', 'i32.load8_s_11', |'i32.store8_8', 'i32.load8_s_13'|];
GET_ENUM = { GET1, GET2, GET3, GET4, GET5};
SET_ENUM = { SET1, SET2, SET3, SET4, SET5};
TEE_ENUM = { TEE1, TEE2, TEE3, TEE4, TEE5};
N = 10;
OP = { 'call[function_index(0)]_7', 'i32.store_1', 'i32.load8_s_2', 'i32.load_5', 'i32.store_6', 'i32.store8_8', 'i32.add_0', 'i32.load8_s_11', 'i32.load8_s_13', 'local.get_0' };
in_ops = [0, 2, 1, 1, 2, 2, 2, 1, 1, 0 ];
out_ops = [1, 0, 1, 1, 0, 0, 1, 1, 1, 1 ];
in1 = ['.', 'local_0', 'in_1', 'in_2', 's(1)', 's(2)', 'local_1', 's(3)', 's(0)', '.' ];
in2 = ['.', 'in_0', '.', '.', 'in_3', 'in_4', 'in_5', '.', '.', '.' ];
in3 = ['.', '.', '.', '.', '.', '.', '.', '.', '.', '.' ];
out1 = ['s(2)', '.', 's(0)', 's(1)', '.', '.', 's(3)', 's(4)', 's(5)', 'local_1' ];
out2 = ['.', '.', '.', '.', '.', '.', '.', '.', '.', '.' ];
out3 = ['.', '.', '.', '.', '.', '.', '.', '.', '.', '.' ];
comm = [false, false, false, false, false, false, true, false, false, false ];
gas = [1, 1, 1, 1, 1, 1, 1, 1, 1, 1 ];
sz = [1, 1, 1, 1, 1, 1, 1, 1, 1, 1 ];
stor = [true, true, false, false, true, true, false, false, false, false ];
lb = [ 1, 1, 1, 1, 1, 1, 1, 1, 1, 1 ];
ub = [ 14, 14, 14, 14, 14, 14, 14, 14, 14, 14 ];
startstack = [ 'in_0', 'in_1', 'in_2', 'in_3', 'in_4', 'in_5', null, null, null, null, null, null ];
endstack = [ 's(5)', 's(4)', null, null, null, null, null, null, null, null, null, null ];
