webassembly/ejemplos_results/14/folder14_json_33.txt
value = 14;
fgas = [2, 1, 1, 1, 1, 1, 1, 1, 1, 2, 2, 1, 1, 1];
fsize = [1, 1, 1, 1, 1, 1, 1, 1, 1, 1, 1, 1, 1, 1];
states = 
[|    in_0,    in_1, in_2, in_3, in_4, in_5, '.', '.', '.', '.', '.', '.'
 |    in_1,    in_2, in_3, in_4, in_5,  '.', '.', '.', '.', '.', '.', '.'
 |  's(0)',    in_2, in_3, in_4, in_5,  '.', '.', '.', '.', '.', '.', '.'
 |    in_2,    in_3, in_4, in_5,  '.',  '.', '.', '.', '.', '.', '.', '.'
 |  's(1)',    in_3, in_4, in_5,  '.',  '.', '.', '.', '.', '.', '.', '.'
 | local_0,    in_0,  '.',  '.',  '.',  '.', '.', '.', '.', '.', '.', '.'
 |    in_5, local_1,  '.',  '.',  '.',  '.', '.', '.', '.', '.', '.', '.'
 |  's(3)',    in_4,  '.',  '.',  '.',  '.', '.', '.', '.', '.', '.', '.'
 |  's(4)',    in_4,  '.',  '.',  '.',  '.', '.', '.', '.', '.', '.', '.'
 | local_1,  's(4)', in_4,  '.',  '.',  '.', '.', '.', '.', '.', '.', '.'
 |  's(4)',    in_4,  '.',  '.',  '.',  '.', '.', '.', '.', '.', '.', '.'
 |    in_4,     '.',  '.',  '.',  '.',  '.', '.', '.', '.', '.', '.', '.'
 |  's(2)',    in_4,  '.',  '.',  '.',  '.', '.', '.', '.', '.', '.', '.'
 |  's(0)',  's(4)',  '.',  '.',  '.',  '.', '.', '.', '.', '.', '.', '.'
 |  's(5)',  's(4)',  '.',  '.',  '.',  '.', '.', '.', '.', '.', '.', '.'
 |];
register_states = 
[| local_0, '.', '.', '.', '.'
 | local_0, '.', '.', '.', '.'
 | local_0, '.', '.', '.', '.'
 |  's(0)', '.', '.', '.', '.'
 |  's(0)', '.', '.', '.', '.'
 |  's(0)', '.', '.', '.', '.'
 |  's(0)', '.', '.', '.', '.'
 |  's(0)', '.', '.', '.', '.'
 |  's(0)', '.', '.', '.', '.'
 |  's(0)', '.', '.', '.', '.'
 |  's(0)', '.', '.', '.', '.'
 |  's(0)', '.', '.', '.', '.'
 |  's(0)', '.', '.', '.', '.'
 |  's(0)', '.', '.', '.', '.'
 |  's(0)', '.', '.', '.', '.'
 |];
program = [POP, O('i32.load8_s_2'), S(SET1), O('i32.load_5'), O('i32.store_6'), O('i32.store_1'), O('i32.add_0'), O('i32.load8_s_11'), O('local.get_0'), POP, POP, O('call[function_index(0)]_7'), O('i32.store8_8'), O('i32.load8_s_13')];
% time elapsed: 0.63 s
----------
value = 13;
fgas = [2, 1, 1, 1, 1, 1, 1, 1, 1, 2, 1, 1, 1, 0];
fsize = [1, 1, 1, 1, 1, 1, 1, 1, 1, 1, 1, 1, 1, 1];
states = 
[|    in_0,   in_1, in_2, in_3, in_4, in_5, '.', '.', '.', '.', '.', '.'
 |    in_1,   in_2, in_3, in_4, in_5,  '.', '.', '.', '.', '.', '.', '.'
 |  's(0)',   in_2, in_3, in_4, in_5,  '.', '.', '.', '.', '.', '.', '.'
 |    in_2,   in_3, in_4, in_5,  '.',  '.', '.', '.', '.', '.', '.', '.'
 |  's(1)',   in_3, in_4, in_5,  '.',  '.', '.', '.', '.', '.', '.', '.'
 | local_0,   in_0,  '.',  '.',  '.',  '.', '.', '.', '.', '.', '.', '.'
 |    in_5,   in_0,  '.',  '.',  '.',  '.', '.', '.', '.', '.', '.', '.'
 | local_1,   in_5, in_0,  '.',  '.',  '.', '.', '.', '.', '.', '.', '.'
 |  's(3)',   in_4,  '.',  '.',  '.',  '.', '.', '.', '.', '.', '.', '.'
 |  's(4)',   in_4,  '.',  '.',  '.',  '.', '.', '.', '.', '.', '.', '.'
 |    in_4,    '.',  '.',  '.',  '.',  '.', '.', '.', '.', '.', '.', '.'
 |  's(2)',   in_4,  '.',  '.',  '.',  '.', '.', '.', '.', '.', '.', '.'
 |  's(0)', 's(4)',  '.',  '.',  '.',  '.', '.', '.', '.', '.', '.', '.'
 |  's(5)', 's(4)',  '.',  '.',  '.',  '.', '.', '.', '.', '.', '.', '.'
 |  's(5)', 's(4)',  '.',  '.',  '.',  '.', '.', '.', '.', '.', '.', '.'
 |];
register_states = 
[| local_0, '.', '.', '.', '.'
 | local_0, '.', '.', '.', '.'
 | local_0, '.', '.', '.', '.'
 |  's(0)', '.', '.', '.', '.'
 |  's(0)', '.', '.', '.', '.'
 |  's(0)', '.', '.', '.', '.'
 |  's(0)', '.', '.', '.', '.'
 |  's(0)', '.', '.', '.', '.'
 |  's(0)', '.', '.', '.', '.'
 |  's(0)', '.', '.', '.', '.'
 |  's(0)', '.', '.', '.', '.'
 |  's(0)', '.', '.', '.', '.'
 |  's(0)', '.', '.', '.', '.'
 |  's(0)', '.', '.', '.', '.'
 |  's(0)', '.', '.', '.', '.'
 |];
program = [POP, O('i32.load8_s_2'), S(SET1), O('i32.load_5'), O('i32.store_6'), O('i32.store_1'), O('local.get_0'), O('i32.add_0'), O('i32.load8_s_11'), POP, O('call[function_index(0)]_7'), O('i32.store8_8'), O('i32.load8_s_13'), NOP];
% time elapsed: 0.64 s
----------
==========
% time elapsed: 0.93 s
% [value > 12]
